Instance name : SB_bar-n100-6
Authors : 
Date : 
Reference 
Solution
Route 1 : 29 31 79 37 30 81 87 1 48 51 80 9 98 11 59 24 61 14 64 46 27 77 96 74 
Route 2 : 4 32 54 5 82 55 47 18 97 68 23 7 73 57 45 95 8 44 36 94 35 85 10 58 60 50 15 86 100 65 
Route 3 : 22 43 72 93 16 41 66 12 91 62 21 42 19 71 6 92 56 69 17 67 3 49 2 52 53 99 
Route 4 : 25 38 34 40 88 20 70 84 28 75 90 13 26 63 76 78 39 89 33 83 
